c This is a random SAT instance with 10 variables and 20 clauses
p cnf 10 20
8 -5 -1 5 -7 0
-4 -8 -6 9 -7 0
3 1 9 -3 5 -7 0
-2 1 -5 4 -1 -9 5 -10 0
3 8 7 -5 -8 -10 0
2 8 -9 7 4 5 0
-6 -8 7 -2 -5 -7 -3 0
1 4 2 0
5 9 8 2 -3 0
7 2 9 -6 -3 -9 0
-8 9 0
5 6 -1 9 -3 3 0
7 5 -4 3 -2 -9 -6 -7 -5 4 0
7 8 0
7 2 4 -6 1 5 -2 -4 6 0
7 -10 -3 2 -1 -5 9 4 10 3 0
5 9 1 -1 -5 2 7 -8 0
10 -9 -8 -2 -7 7 9 4 2 0
1 -10 -5 3 9 -9 -6 0
-3 6 -2 -8 1 0